s td 154 18 227
b 1 8 36 97 151 198
b 2 40 41 219
b 3 49 168 198
b 4 40 60 73 92 219
b 5 8 74 97
b 6 102 127 219
b 7 112 116 145 223
b 8 46 53 64 148
b 9 40 152 210
b 10 6 65 99 170
b 11 151 173 198
b 12 73 92 183
b 13 86 193 207
b 14 77 151 216
b 15 3 4 13 108
b 16 6 21 89 99
b 17 5 6 34 99
b 18 6 22 65 99
b 19 63 98 162 226
b 20 92 102 107 213
b 21 8 77 131 149
b 22 140 172 193 217
b 23 79 97 163 168
b 24 6 99 191 200
b 25 27 86 114 192
b 26 73 124 209 210
b 27 6 82 99 224
b 28 1 8 27 75 85 86 92 108 134 139 144 151 169 180 193 199 217 219
b 29 13 27 75 85 86 108 114 134 144 169 193 217
b 30 13 18 23 27 32 39 50 56 88 122 144 162 169 171 214 217 222
b 31 18 23 32 39 50 56 88 122 144 162 169 171 195 214
b 32 2 9 18 23 32 39 50 56 88 104 122 171 195 214
b 33 2 9 18 20 23 32 39 50 88 91 103 104 122 125 171 195 214
b 34 2 20 32 38 39 50 88 91 103 122 123 125 126 171 195 214
b 35 15 32 38 39 50 88 91 103 122 123 126 147 154 171 195 214
b 36 15 32 38 39 88 91 103 122 123 126 147 150 154 171 195 214
b 37 15 32 38 39 88 91 103 122 123 126 147 150 154 182 195 214
b 38 15 32 38 39 88 91 103 122 123 126 147 150 154 160 182 214
b 39 15 32 38 88 91 103 115 122 123 126 147 150 154 160 182 214
b 40 15 32 38 88 91 103 110 115 123 126 147 150 154 160 182 214
b 41 15 32 38 84 88 91 103 110 115 123 126 147 150 154 160 182
b 42 15 32 38 59 84 91 103 110 115 123 126 147 150 154 160 182
b 43 15 38 59 84 91 103 106 110 115 123 126 147 150 154 160 164 182
b 44 15 59 84 87 106 110 115 126 147 150 154 160 164 182
b 45 59 72 84 87 106 110 115 136 150 154 160 164 178 182 202 208
b 46 59 72 84 87 96 106 110 115 136 150 154 164 178 182 202 208
b 47 59 72 84 87 96 106 110 115 136 150 154 164 178 186 202 208
b 48 72 84 87 96 100 106 110 115 136 150 154 164 178 186 202 208
b 49 16 72 84 87 96 100 106 110 136 150 154 164 178 186 202 208
b 50 10 16 72 87 96 100 106 110 136 150 154 164 178 186 202 208
b 51 7 10 16 72 87 96 100 110 136 150 154 164 178 186 202 208
b 52 7 10 11 16 55 72 87 96 100 136 150 154 164 178 186 202 208
b 53 7 10 11 16 33 55 72 76 96 100 136 150 154 178 186 212
b 54 7 11 16 33 55 72 76 96 100 150 154 186 212 227
b 55 7 11 33 55 72 76 96 100 150 154 186 212 215 227
b 56 7 11 33 55 72 76 96 100 154 186 204 212 215 227
b 57 7 11 33 55 72 76 96 100 177 186 204 212 215 227
b 58 11 33 55 72 76 96 100 120 177 186 204 212 215 227
b 59 11 33 55 66 72 76 96 100 120 177 204 212 215 227
b 60 11 12 33 42 55 66 72 76 96 120 165 166 177 204 212 215 227
b 61 12 42 66 72 76 90 96 120 129 130 165 166 177 204 215 227
b 62 12 57 66 72 90 93 96 99 120 129 130 165 177 179 204 215 227
b 63 12 57 62 66 69 72 90 93 96 99 120 129 130 165 177 179 227
b 64 6 57 62 66 69 72 90 93 96 99 120 129 130 177 179 227
b 65 5 6 57 62 93 99 120 129 130 179
b 66 6 22 69 93 99 130
b 67 6 48 62 96 129 130 179
b 68 6 57 62 82 93 99 130 177
b 69 6 57 62 89 93 99 129 130 179 227
b 70 6 62 72 129 130 142 179
b 71 6 57 62 66 93 99 130 200
b 72 12 57 61 62 69 90 93 99 129 130 179
b 73 57 93 99 129 179 185 215
b 74 57 93 99 129 179 190 204
b 75 24 42 76 90 129 130 166
b 76 11 12 33 42 55 66 71 76 120 165 166 174 177 204 212 215 227
b 77 11 12 33 42 55 71 76 165 166 174 187 212
b 78 12 31 33 42 55 71 76 166 174 187 212
b 79 10 33 76 136 176 178 212
b 80 7 10 11 16 28 55 87 100 136 150 154 164 178 184 186 202 208
b 81 10 11 28 55 87 136 164 178 184 189 202 208
b 82 10 28 55 87 136 161 178 184 189 202 208
b 83 96 136 178 182 202 208 211
b 84 47 72 136 160 178 202 208
b 85 15 30 38 59 84 91 103 106 110 115 123 126 147 160 164 182 201
b 86 15 30 38 91 103 106 123 126 147 155 164 201
b 87 15 30 38 91 106 123 126 147 155 188 201
b 88 15 17 38 123 147 150 171
b 89 15 25 38 50 123 147 154
b 90 2 20 38 123 125 126 175
b 91 2 9 18 20 23 32 39 80 88 91 103 104 119 122 125 195 214
b 92 2 9 18 20 23 78 80 91 103 104 119 125
b 93 2 9 20 23 67 78 80 103 104 119 125
b 94 13 18 23 27 29 32 39 50 56 88 122 162 171 214 217 222
b 95 18 23 27 29 32 39 50 56 88 122 162 171 214 217 222 226
b 96 18 23 29 32 39 50 56 64 88 112 116 122 128 162 171 214 226
b 97 18 19 23 29 32 39 53 56 64 88 112 116 122 128 162 214 226
b 98 18 19 23 29 39 53 56 64 101 112 116 128 162 226
b 99 19 35 39 53 101 116 128 162 226
b 100 35 63 101 162 226
b 101 18 19 23 29 53 56 64 101 112 116 128 157
b 102 19 23 29 53 56 64 112 116 128 157 223
b 103 19 23 29 46 53 64 112 116 128 157 223
b 104 27 29 153 217 222 226
b 105 13 75 85 108 114 134 144 206
b 106 4 13 75 85 108 134 206
b 107 4 75 85 108 133 134 206
b 108 75 81 86 108 114 144 169 193 217
b 109 81 86 114 144 169 172 193 217
b 110 1 8 27 83 85 86 92 134 139 141 144 151 180 199 219
b 111 1 8 27 54 83 85 86 92 138 139 141 144 151 180 199 219
b 112 1 8 54 83 85 86 92 138 139 141 144 151 167 180 219
b 113 8 14 86 92 138 167
b 114 1 8 54 83 86 92 132 138 141 144 151 167 219
b 115 26 54 132 151 219
b 116 1 8 27 75 85 86 92 108 139 149 151 169 180 193 199 213 217 219
b 117 8 75 79 86 92 97 108 139 149 151 169 180 193 198 199 213 217 219
b 118 8 70 75 79 86 92 97 108 139 151 169 180 193 198 199 213 217 219
b 119 40 70 75 79 92 97 108 139 151 169 180 193 198 199 213 217 219
b 120 40 70 73 75 79 92 97 108 139 169 180 193 198 199 213 217 219
b 121 40 73 75 79 92 97 108 124 139 169 180 193 198 199 213 217 219
b 122 40 73 75 79 97 108 109 124 139 169 180 193 198 199 217 218
b 123 40 73 75 97 108 109 139 143 146 169 180 193 198 199 217 218
b 124 40 73 97 109 139 143 146 169 180 193 198 199 205 217 218 225
b 125 40 73 97 109 139 143 146 169 180 193 196 198 205 218 225
b 126 40 52 73 97 109 143 146 169 193 196 198 205 225
b 127 40 52 118 198 205
b 128 73 97 193 196 221 225
b 129 75 108 117 143 146 169 218
b 130 79 124 156 217 218
b 131 40 113 151 198 219
b 132 27 85 149 159 213
b 133 6 43 62 90 179
b 134 27 44 54 83 138
b 135 4 51 111 134 203 220
b 136 4 111 133 134 203 220
b 137 4 85 111 133 134
b 138 45 58 75 108 117 158
b 139 45 75 95 108 117 158
b 140 94 146 205 217 225
b 141 75 95 108 117 218
b 142 57 61 99 105 129
b 143 13 27 29 121 217
b 144 27 153 197 217 226
b 145 50 64 68 112 116 128
b 146 8 77 97 149 151 168 198
b 147 8 79 97 149 151 168 198
b 148 40 73 92 102 210 213 219
b 149 40 73 92 124 210 213 219
b 150 19 53 64 112 135 214
b 151 64 112 116 128 171 181
b 152 19 53 64 112 122 194
b 153 19 53 64 88 112 116 128 137
b 154 19 29 32 37 53 64 112 116 128
1 117
2 119
3 147
4 120
5 117
6 148
7 102
8 103
9 149
10 18
11 117
12 120
13 28
14 146
15 106
16 69
17 65
18 66
19 100
20 148
21 146
22 109
23 147
24 71
25 29
26 149
27 68
28 29
28 110
28 116
29 30
29 105
29 108
30 31
30 94
31 32
32 33
33 34
33 91
34 35
34 90
35 36
35 89
36 37
36 88
37 38
38 39
39 40
40 41
41 42
42 43
43 44
43 85
44 45
45 46
45 84
46 47
46 83
47 48
48 49
49 50
50 51
51 52
52 53
52 80
53 54
53 79
54 55
55 56
56 57
57 58
58 59
59 60
60 61
60 76
61 62
61 75
62 63
62 73
62 74
63 64
63 72
64 133
64 65
64 66
64 67
64 68
64 69
64 70
64 71
72 142
76 77
77 78
80 81
81 82
85 86
86 87
91 92
92 93
94 143
94 95
95 96
95 104
96 145
96 151
96 97
97 150
97 152
97 153
97 154
97 98
98 99
98 101
99 100
101 102
102 103
104 144
105 106
106 107
107 137
108 109
110 111
111 134
111 112
112 113
112 114
114 115
116 117
116 132
117 147
117 118
118 119
119 120
119 131
120 121
121 149
121 122
122 123
122 130
123 124
123 129
124 140
124 125
125 126
125 128
126 127
129 141
135 136
136 137
138 139
139 141
146 147
148 149
